p cnf 449 1466
c input variables 12
c output variables 1
c literals 3933
-13 3 0
13 -3 6 0
-13 -6 0
-14 2 0
14 -2 3 5 6 0
-14 3 -6 0
-14 -5 0
14 -2 -3 5 -6 0
-14 -3 6 0
15 -14 0
-15 13 14 0
15 -13 0
-16 1 0
16 -1 3 4 6 0
-16 3 -6 0
-16 -4 0
16 -1 -3 4 -6 0
-16 -3 6 0
17 2 5 -16 0
-17 16 0
-17 2 -5 0
-17 -2 5 0
17 -2 -5 -16 0
18 -17 0
-18 15 17 0
18 -15 0
-19 18 0
19 -18 0
-20 0
-21 0
22 -21 0
-22 20 21 0
22 -20 0
-23 0
24 -23 0
-24 23 0
25 -24 0
-25 22 24 0
25 -22 0
-26 19 0
26 -19 -25 0
-26 25 0
27 -26 0
-27 19 26 0
27 -19 0
28 6 -9 0
-28 9 0
-28 -6 0
-29 8 0
29 5 6 -8 9 0
-29 6 -9 0
29 5 -6 -8 -9 0
-29 -6 9 0
-29 -5 0
30 -29 0
-30 28 29 0
30 -28 0
-31 7 0
31 4 6 -7 9 0
-31 6 -9 0
31 4 -6 -7 -9 0
-31 -6 9 0
-31 -4 0
32 5 8 -31 0
-32 31 0
-32 5 -8 0
-32 -5 8 0
32 -5 -8 -31 0
33 -32 0
-33 30 32 0
33 -30 0
34 6 -12 0
-34 12 0
-34 -6 0
-35 11 0
35 5 6 -11 12 0
-35 6 -12 0
35 5 -6 -11 -12 0
-35 -6 12 0
-35 -5 0
36 -35 0
-36 34 35 0
36 -34 0
-37 10 0
37 4 6 -10 12 0
-37 6 -12 0
37 4 -6 -10 -12 0
-37 -6 12 0
-37 -4 0
38 5 11 -37 0
-38 37 0
-38 5 -11 0
-38 -5 11 0
38 -5 -11 -37 0
39 -38 0
-39 36 38 0
39 -36 0
40 27 0
-40 -27 0
-41 3 0
41 -3 9 0
-41 -9 0
-42 2 0
42 -2 3 8 9 0
-42 3 -9 0
-42 -8 0
42 -2 -3 8 -9 0
-42 -3 9 0
43 -42 0
-43 41 42 0
43 -41 0
-44 1 0
44 -1 3 7 9 0
-44 3 -9 0
-44 -7 0
44 -1 -3 7 -9 0
-44 -3 9 0
45 2 8 -44 0
-45 44 0
-45 2 -8 0
-45 -2 8 0
45 -2 -8 -44 0
46 -45 0
-46 43 45 0
46 -43 0
-47 40 0
47 -40 -46 0
-47 46 0
-48 27 0
48 -27 47 0
-48 -47 0
-49 47 0
49 -47 0
-50 48 0
50 -48 49 0
-50 -49 0
-51 6 0
51 -6 9 0
-51 -9 0
-52 5 0
52 -5 6 8 9 0
-52 6 -9 0
-52 -8 0
52 -5 -6 8 -9 0
-52 -6 9 0
53 -52 0
-53 51 52 0
53 -51 0
-54 4 0
54 -4 6 7 9 0
-54 6 -9 0
-54 -7 0
54 -4 -6 7 -9 0
-54 -6 9 0
55 5 8 -54 0
-55 54 0
-55 5 -8 0
-55 -5 8 0
55 -5 -8 -54 0
56 -55 0
-56 53 55 0
56 -53 0
-57 50 0
57 -50 -56 0
-57 56 0
-58 48 0
58 -48 57 0
-58 -57 0
59 -57 0
-59 49 57 0
59 -49 0
60 58 0
-60 -58 0
-61 59 0
61 -59 -60 0
-61 60 0
-62 0
-63 0
64 -63 0
-64 62 63 0
64 -62 0
-65 0
66 -65 0
-66 65 0
67 -66 0
-67 64 66 0
67 -64 0
-68 61 0
68 -61 -67 0
-68 67 0
-69 58 0
69 -58 68 0
-69 -68 0
70 -68 0
-70 59 68 0
70 -59 0
-71 69 0
71 -69 -70 0
-71 70 0
72 9 -12 0
-72 12 0
-72 -9 0
-73 11 0
73 8 9 -11 12 0
-73 9 -12 0
73 8 -9 -11 -12 0
-73 -9 12 0
-73 -8 0
74 -73 0
-74 72 73 0
74 -72 0
-75 10 0
75 7 9 -10 12 0
-75 9 -12 0
75 7 -9 -10 -12 0
-75 -9 12 0
-75 -7 0
76 8 11 -75 0
-76 75 0
-76 8 -11 0
-76 -8 11 0
76 -8 -11 -75 0
77 -76 0
-77 74 76 0
77 -74 0
-78 71 0
78 -71 -77 0
-78 77 0
-79 69 0
79 -69 78 0
-79 -78 0
80 -78 0
-80 70 78 0
80 -70 0
81 79 0
-81 -79 0
82 80 -81 0
-82 81 0
-82 -80 0
-83 3 0
83 -3 12 0
-83 -12 0
-84 2 0
84 -2 3 11 12 0
-84 3 -12 0
-84 -11 0
84 -2 -3 11 -12 0
-84 -3 12 0
85 -84 0
-85 83 84 0
85 -83 0
-86 1 0
86 -1 3 10 12 0
-86 3 -12 0
-86 -10 0
86 -1 -3 10 -12 0
-86 -3 12 0
87 2 11 -86 0
-87 86 0
-87 2 -11 0
-87 -2 11 0
87 -2 -11 -86 0
88 -87 0
-88 85 87 0
88 -85 0
-89 82 0
89 -82 -88 0
-89 88 0
90 -89 0
-90 79 89 0
90 -79 0
91 -89 0
-91 80 89 0
91 -80 0
-92 90 0
92 -90 91 0
-92 -91 0
-93 6 0
93 -6 12 0
-93 -12 0
-94 5 0
94 -5 6 11 12 0
-94 6 -12 0
-94 -11 0
94 -5 -6 11 -12 0
-94 -6 12 0
95 -94 0
-95 93 94 0
95 -93 0
-96 4 0
96 -4 6 10 12 0
-96 6 -12 0
-96 -10 0
96 -4 -6 10 -12 0
-96 -6 12 0
97 5 11 -96 0
-97 96 0
-97 5 -11 0
-97 -5 11 0
97 -5 -11 -96 0
98 -97 0
-98 95 97 0
98 -95 0
-99 92 0
99 -92 -98 0
-99 98 0
100 -99 0
-100 90 99 0
100 -90 0
101 -99 0
-101 91 99 0
101 -91 0
102 100 0
-102 -100 0
-103 101 0
103 -101 -102 0
-103 102 0
-104 9 0
104 -9 12 0
-104 -12 0
-105 8 0
105 -8 9 11 12 0
-105 9 -12 0
-105 -11 0
105 -8 -9 11 -12 0
-105 -9 12 0
106 -105 0
-106 104 105 0
106 -104 0
-107 7 0
107 -7 9 10 12 0
-107 9 -12 0
-107 -10 0
107 -7 -9 10 -12 0
-107 -9 12 0
108 8 11 -107 0
-108 107 0
-108 8 -11 0
-108 -8 11 0
108 -8 -11 -107 0
109 -108 0
-109 106 108 0
109 -106 0
-110 103 0
110 -103 -109 0
-110 109 0
111 -110 0
-111 100 110 0
111 -100 0
112 -110 0
-112 101 110 0
112 -101 0
-113 111 0
113 -111 -112 0
-113 112 0
-114 0
-115 0
116 -115 0
-116 114 115 0
116 -114 0
-117 0
118 -117 0
-118 117 0
119 -118 0
-119 116 118 0
119 -116 0
-120 113 0
120 -113 -119 0
-120 119 0
121 -120 0
-121 111 120 0
121 -111 0
122 -120 0
-122 112 120 0
122 -112 0
123 121 0
-123 -121 0
124 122 -123 0
-124 123 0
-124 -122 0
125 -1 0
-125 1 0
126 -2 0
-126 2 0
127 -3 0
-127 3 0
-128 121 0
128 -121 122 0
-128 -122 0
129 -125 128 0
129 -4 -128 0
-129 125 128 0
-129 4 -128 0
130 -126 128 0
130 -5 -128 0
-130 126 128 0
-130 5 -128 0
131 -127 128 0
131 -6 -128 0
-131 127 128 0
-131 6 -128 0
132 -4 128 0
132 -125 -128 0
-132 4 128 0
-132 125 -128 0
133 -5 128 0
133 -126 -128 0
-133 5 128 0
-133 126 -128 0
134 -6 128 0
134 -127 -128 0
-134 6 128 0
-134 127 -128 0
-135 122 0
135 -122 -123 0
-135 123 0
136 -129 135 0
136 -7 -135 0
-136 129 135 0
-136 7 -135 0
137 -130 135 0
137 -8 -135 0
-137 130 135 0
-137 8 -135 0
138 -131 135 0
138 -9 -135 0
-138 131 135 0
-138 9 -135 0
139 -7 135 0
139 -129 -135 0
-139 7 135 0
-139 129 -135 0
140 -8 135 0
140 -130 -135 0
-140 8 135 0
-140 130 -135 0
141 -9 135 0
141 -131 -135 0
-141 9 135 0
-141 131 -135 0
-142 121 0
142 -121 -122 0
-142 122 0
143 -136 142 0
143 -10 -142 0
-143 136 142 0
-143 10 -142 0
144 -137 142 0
144 -11 -142 0
-144 137 142 0
-144 11 -142 0
145 -138 142 0
145 -12 -142 0
-145 138 142 0
-145 12 -142 0
146 -10 142 0
146 -136 -142 0
-146 10 142 0
-146 136 -142 0
147 -11 142 0
147 -137 -142 0
-147 11 142 0
-147 137 -142 0
148 -12 142 0
148 -138 -142 0
-148 12 142 0
-148 138 -142 0
-149 134 0
149 -134 141 0
-149 -141 0
-150 133 0
150 -133 134 140 141 0
-150 134 -141 0
-150 -140 0
150 -133 -134 140 -141 0
-150 -134 141 0
151 -150 0
-151 149 150 0
151 -149 0
-152 132 0
152 -132 134 139 141 0
-152 134 -141 0
-152 -139 0
152 -132 -134 139 -141 0
-152 -134 141 0
153 133 140 -152 0
-153 152 0
-153 133 -140 0
-153 -133 140 0
153 -133 -140 -152 0
154 -153 0
-154 151 153 0
154 -151 0
155 154 0
-155 -154 0
-156 154 0
156 -154 0
157 155 0
-157 -155 0
-158 156 0
158 -156 -157 0
-158 157 0
-159 0
-160 0
161 -160 0
-161 159 160 0
161 -159 0
-162 0
163 -162 0
-163 162 0
164 -163 0
-164 161 163 0
164 -161 0
-165 158 0
165 -158 -164 0
-165 164 0
-166 155 0
166 -155 165 0
-166 -165 0
167 -165 0
-167 156 165 0
167 -156 0
-168 166 0
168 -166 -167 0
-168 167 0
169 141 -148 0
-169 148 0
-169 -141 0
-170 147 0
170 140 141 -147 148 0
-170 141 -148 0
170 140 -141 -147 -148 0
-170 -141 148 0
-170 -140 0
171 -170 0
-171 169 170 0
171 -169 0
-172 146 0
172 139 141 -146 148 0
-172 141 -148 0
172 139 -141 -146 -148 0
-172 -141 148 0
-172 -139 0
173 140 147 -172 0
-173 172 0
-173 140 -147 0
-173 -140 147 0
173 -140 -147 -172 0
174 -173 0
-174 171 173 0
174 -171 0
-175 168 0
175 -168 -174 0
-175 174 0
-176 166 0
176 -166 175 0
-176 -175 0
177 -175 0
-177 167 175 0
177 -167 0
-178 176 0
178 -176 177 0
-178 -177 0
-179 134 0
179 -134 148 0
-179 -148 0
-180 133 0
180 -133 134 147 148 0
-180 134 -148 0
-180 -147 0
180 -133 -134 147 -148 0
-180 -134 148 0
181 -180 0
-181 179 180 0
181 -179 0
-182 132 0
182 -132 134 146 148 0
-182 134 -148 0
-182 -146 0
182 -132 -134 146 -148 0
-182 -134 148 0
183 133 147 -182 0
-183 182 0
-183 133 -147 0
-183 -133 147 0
183 -133 -147 -182 0
184 -183 0
-184 181 183 0
184 -181 0
-185 178 0
185 -178 -184 0
-185 184 0
186 -185 0
-186 176 185 0
186 -176 0
187 -185 0
-187 177 185 0
187 -177 0
188 186 0
-188 -186 0
-189 187 0
189 -187 -188 0
-189 188 0
-190 141 0
190 -141 148 0
-190 -148 0
-191 140 0
191 -140 141 147 148 0
-191 141 -148 0
-191 -147 0
191 -140 -141 147 -148 0
-191 -141 148 0
192 -191 0
-192 190 191 0
192 -190 0
-193 139 0
193 -139 141 146 148 0
-193 141 -148 0
-193 -146 0
193 -139 -141 146 -148 0
-193 -141 148 0
194 140 147 -193 0
-194 193 0
-194 140 -147 0
-194 -140 147 0
194 -140 -147 -193 0
195 -194 0
-195 192 194 0
195 -192 0
-196 189 0
196 -189 -195 0
-196 195 0
197 -196 0
-197 186 196 0
197 -186 0
198 -196 0
-198 187 196 0
198 -187 0
-199 197 0
199 -197 -198 0
-199 198 0
-200 0
-201 0
202 -201 0
-202 200 201 0
202 -200 0
-203 0
204 -203 0
-204 203 0
205 -204 0
-205 202 204 0
205 -202 0
-206 199 0
206 -199 -205 0
-206 205 0
207 -206 0
-207 197 206 0
207 -197 0
208 -206 0
-208 198 206 0
208 -198 0
-209 207 0
209 -207 208 0
-209 -208 0
210 -132 0
-210 132 0
211 -133 0
-211 133 0
212 -134 0
-212 134 0
213 207 0
-213 -207 0
-214 208 0
214 -208 -213 0
-214 213 0
215 -210 214 0
215 -139 -214 0
-215 210 214 0
-215 139 -214 0
216 -211 214 0
216 -140 -214 0
-216 211 214 0
-216 140 -214 0
217 -212 214 0
217 -141 -214 0
-217 212 214 0
-217 141 -214 0
218 -139 214 0
218 -210 -214 0
-218 139 214 0
-218 210 -214 0
219 -140 214 0
219 -211 -214 0
-219 140 214 0
-219 211 -214 0
220 -141 214 0
220 -212 -214 0
-220 141 214 0
-220 212 -214 0
-221 207 0
221 -207 -208 0
-221 208 0
222 -215 221 0
222 -146 -221 0
-222 215 221 0
-222 146 -221 0
223 -216 221 0
223 -147 -221 0
-223 216 221 0
-223 147 -221 0
224 -217 221 0
224 -148 -221 0
-224 217 221 0
-224 148 -221 0
225 -146 221 0
225 -215 -221 0
-225 146 221 0
-225 215 -221 0
226 -147 221 0
226 -216 -221 0
-226 147 221 0
-226 216 -221 0
227 -148 221 0
227 -217 -221 0
-227 148 221 0
-227 217 -221 0
-228 220 0
228 -220 227 0
-228 -227 0
-229 219 0
229 -219 220 226 227 0
-229 220 -227 0
-229 -226 0
229 -219 -220 226 -227 0
-229 -220 227 0
230 -229 0
-230 228 229 0
230 -228 0
-231 218 0
231 -218 220 225 227 0
-231 220 -227 0
-231 -225 0
231 -218 -220 225 -227 0
-231 -220 227 0
232 219 226 -231 0
-232 231 0
-232 219 -226 0
-232 -219 226 0
232 -219 -226 -231 0
233 -232 0
-233 230 232 0
233 -230 0
-234 233 0
234 -233 0
235 0
-236 234 0
236 -234 -235 0
-236 235 0
-237 0
-238 0
239 -238 0
-239 237 238 0
239 -237 0
-240 0
241 -240 0
-241 240 0
242 -241 0
-242 239 241 0
242 -239 0
-243 236 0
243 -236 -242 0
-243 242 0
244 -243 0
-244 234 243 0
244 -234 0
245 -243 0
-245 235 243 0
245 -235 0
246 244 0
-246 -244 0
-247 245 0
247 -245 -246 0
-247 246 0
248 -218 0
-248 218 0
249 -219 0
-249 219 0
250 -220 0
-250 220 0
-251 244 0
251 -244 -245 0
-251 245 0
252 -248 251 0
252 -225 -251 0
-252 248 251 0
-252 225 -251 0
253 -249 251 0
253 -226 -251 0
-253 249 251 0
-253 226 -251 0
254 -250 251 0
254 -227 -251 0
-254 250 251 0
-254 227 -251 0
255 -225 251 0
255 -248 -251 0
-255 225 251 0
-255 248 -251 0
256 -226 251 0
256 -249 -251 0
-256 226 251 0
-256 249 -251 0
257 -227 251 0
257 -250 -251 0
-257 227 251 0
-257 250 -251 0
258 3 -6 0
-258 6 0
-258 -3 0
-259 5 0
259 2 3 -5 6 0
-259 3 -6 0
259 2 -3 -5 -6 0
-259 -3 6 0
-259 -2 0
260 -259 0
-260 258 259 0
260 -258 0
-261 4 0
261 1 3 -4 6 0
-261 3 -6 0
261 1 -3 -4 -6 0
-261 -3 6 0
-261 -1 0
262 2 5 -261 0
-262 261 0
-262 2 -5 0
-262 -2 5 0
262 -2 -5 -261 0
263 -262 0
-263 260 262 0
263 -260 0
-264 263 0
264 -263 0
-265 25 0
265 -25 -264 0
-265 264 0
266 -265 0
-266 264 265 0
266 -264 0
267 266 0
-267 -266 0
268 3 -9 0
-268 9 0
-268 -3 0
-269 8 0
269 2 3 -8 9 0
-269 3 -9 0
269 2 -3 -8 -9 0
-269 -3 9 0
-269 -2 0
270 -269 0
-270 268 269 0
270 -268 0
-271 7 0
271 1 3 -7 9 0
-271 3 -9 0
271 1 -3 -7 -9 0
-271 -3 9 0
-271 -1 0
272 2 8 -271 0
-272 271 0
-272 2 -8 0
-272 -2 8 0
272 -2 -8 -271 0
273 -272 0
-273 270 272 0
273 -270 0
-274 267 0
274 -267 -273 0
-274 273 0
-275 266 0
275 -266 274 0
-275 -274 0
-276 274 0
276 -274 0
-277 275 0
277 -275 276 0
-277 -276 0
-278 33 0
278 -33 -277 0
-278 277 0
-279 275 0
279 -275 278 0
-279 -278 0
280 -278 0
-280 276 278 0
280 -276 0
281 279 0
-281 -279 0
-282 280 0
282 -280 -281 0
-282 281 0
-283 67 0
283 -67 -282 0
-283 282 0
-284 279 0
284 -279 283 0
-284 -283 0
285 -283 0
-285 280 283 0
285 -280 0
-286 284 0
286 -284 -285 0
-286 285 0
-287 109 0
287 -109 -286 0
-287 286 0
-288 284 0
288 -284 287 0
-288 -287 0
289 -287 0
-289 285 287 0
289 -285 0
290 288 0
-290 -288 0
291 289 -290 0
-291 290 0
-291 -289 0
292 3 -12 0
-292 12 0
-292 -3 0
-293 11 0
293 2 3 -11 12 0
-293 3 -12 0
293 2 -3 -11 -12 0
-293 -3 12 0
-293 -2 0
294 -293 0
-294 292 293 0
294 -292 0
-295 10 0
295 1 3 -10 12 0
-295 3 -12 0
295 1 -3 -10 -12 0
-295 -3 12 0
-295 -1 0
296 2 11 -295 0
-296 295 0
-296 2 -11 0
-296 -2 11 0
296 -2 -11 -295 0
297 -296 0
-297 294 296 0
297 -294 0
-298 291 0
298 -291 -297 0
-298 297 0
299 -298 0
-299 288 298 0
299 -288 0
300 -298 0
-300 289 298 0
300 -289 0
-301 299 0
301 -299 300 0
-301 -300 0
-302 39 0
302 -39 -301 0
-302 301 0
303 -302 0
-303 299 302 0
303 -299 0
304 -302 0
-304 300 302 0
304 -300 0
305 303 0
-305 -303 0
-306 304 0
306 -304 -305 0
-306 305 0
-307 77 0
307 -77 -306 0
-307 306 0
308 -307 0
-308 303 307 0
308 -303 0
309 -307 0
-309 304 307 0
309 -304 0
-310 308 0
310 -308 -309 0
-310 309 0
-311 119 0
311 -119 -310 0
-311 310 0
312 -311 0
-312 308 311 0
312 -308 0
313 -311 0
-313 309 311 0
313 -309 0
-314 312 0
314 -312 313 0
-314 -313 0
315 -1 314 0
315 -4 -314 0
-315 1 314 0
-315 4 -314 0
316 -2 314 0
316 -5 -314 0
-316 2 314 0
-316 5 -314 0
317 -3 314 0
317 -6 -314 0
-317 3 314 0
-317 6 -314 0
318 -4 314 0
318 -1 -314 0
-318 4 314 0
-318 1 -314 0
319 -5 314 0
319 -2 -314 0
-319 5 314 0
-319 2 -314 0
320 -6 314 0
320 -3 -314 0
-320 6 314 0
-320 3 -314 0
321 312 0
-321 -312 0
-322 313 0
322 -313 -321 0
-322 321 0
323 -315 322 0
323 -7 -322 0
-323 315 322 0
-323 7 -322 0
324 -316 322 0
324 -8 -322 0
-324 316 322 0
-324 8 -322 0
325 -317 322 0
325 -9 -322 0
-325 317 322 0
-325 9 -322 0
326 -7 322 0
326 -315 -322 0
-326 7 322 0
-326 315 -322 0
327 -8 322 0
327 -316 -322 0
-327 8 322 0
-327 316 -322 0
328 -9 322 0
328 -317 -322 0
-328 9 322 0
-328 317 -322 0
329 -318 0
-329 318 0
330 -319 0
-330 319 0
331 -320 0
-331 320 0
-332 312 0
332 -312 -313 0
-332 313 0
333 332 0
-333 -332 0
334 -323 333 0
334 -10 -333 0
-334 323 333 0
-334 10 -333 0
335 -324 333 0
335 -11 -333 0
-335 324 333 0
-335 11 -333 0
336 -325 333 0
336 -12 -333 0
-336 325 333 0
-336 12 -333 0
337 -10 333 0
337 -323 -333 0
-337 10 333 0
-337 323 -333 0
338 -11 333 0
338 -324 -333 0
-338 11 333 0
-338 324 -333 0
339 -12 333 0
339 -325 -333 0
-339 12 333 0
-339 325 -333 0
340 -329 333 0
340 -326 -333 0
-340 329 333 0
-340 326 -333 0
341 -330 333 0
341 -327 -333 0
-341 330 333 0
-341 327 -333 0
342 -331 333 0
342 -328 -333 0
-342 331 333 0
-342 328 -333 0
343 -326 333 0
343 -329 -333 0
-343 326 333 0
-343 329 -333 0
344 -327 333 0
344 -330 -333 0
-344 327 333 0
-344 330 -333 0
345 -328 333 0
345 -331 -333 0
-345 328 333 0
-345 331 -333 0
346 336 -342 0
-346 342 0
-346 -336 0
-347 341 0
347 335 336 -341 342 0
-347 336 -342 0
347 335 -336 -341 -342 0
-347 -336 342 0
-347 -335 0
348 -347 0
-348 346 347 0
348 -346 0
-349 340 0
349 334 336 -340 342 0
-349 336 -342 0
349 334 -336 -340 -342 0
-349 -336 342 0
-349 -334 0
350 335 341 -349 0
-350 349 0
-350 335 -341 0
-350 -335 341 0
350 -335 -341 -349 0
351 -350 0
-351 348 350 0
351 -348 0
-352 351 0
352 -351 0
-353 0
-354 0
355 -354 0
-355 353 354 0
355 -353 0
-356 0
357 -356 0
-357 356 0
358 -357 0
-358 355 357 0
358 -355 0
-359 352 0
359 -352 -358 0
-359 358 0
360 -359 0
-360 352 359 0
360 -352 0
361 360 0
-361 -360 0
362 336 -345 0
-362 345 0
-362 -336 0
-363 344 0
363 335 336 -344 345 0
-363 336 -345 0
363 335 -336 -344 -345 0
-363 -336 345 0
-363 -335 0
364 -363 0
-364 362 363 0
364 -362 0
-365 343 0
365 334 336 -343 345 0
-365 336 -345 0
365 334 -336 -343 -345 0
-365 -336 345 0
-365 -334 0
366 335 344 -365 0
-366 365 0
-366 335 -344 0
-366 -335 344 0
366 -335 -344 -365 0
367 -366 0
-367 364 366 0
367 -364 0
-368 361 0
368 -361 -367 0
-368 367 0
-369 360 0
369 -360 368 0
-369 -368 0
-370 368 0
370 -368 0
-371 369 0
371 -369 370 0
-371 -370 0
372 342 -345 0
-372 345 0
-372 -342 0
-373 344 0
373 341 342 -344 345 0
-373 342 -345 0
373 341 -342 -344 -345 0
-373 -342 345 0
-373 -341 0
374 -373 0
-374 372 373 0
374 -372 0
-375 343 0
375 340 342 -343 345 0
-375 342 -345 0
375 340 -342 -343 -345 0
-375 -342 345 0
-375 -340 0
376 341 344 -375 0
-376 375 0
-376 341 -344 0
-376 -341 344 0
376 -341 -344 -375 0
377 -376 0
-377 374 376 0
377 -374 0
-378 371 0
378 -371 -377 0
-378 377 0
-379 369 0
379 -369 378 0
-379 -378 0
380 -378 0
-380 370 378 0
380 -370 0
381 379 0
-381 -379 0
-382 380 0
382 -380 -381 0
-382 381 0
-383 0
-384 0
385 -384 0
-385 383 384 0
385 -383 0
-386 0
387 -386 0
-387 386 0
388 -387 0
-388 385 387 0
388 -385 0
-389 382 0
389 -382 -388 0
-389 388 0
-390 379 0
390 -379 389 0
-390 -389 0
391 -389 0
-391 380 389 0
391 -380 0
-392 390 0
392 -390 391 0
-392 -391 0
393 -334 392 0
393 -340 -392 0
-393 334 392 0
-393 340 -392 0
394 -335 392 0
394 -341 -392 0
-394 335 392 0
-394 341 -392 0
395 -336 392 0
395 -342 -392 0
-395 336 392 0
-395 342 -392 0
396 -340 392 0
396 -334 -392 0
-396 340 392 0
-396 334 -392 0
397 -341 392 0
397 -335 -392 0
-397 341 392 0
-397 335 -392 0
398 -342 392 0
398 -336 -392 0
-398 342 392 0
-398 336 -392 0
399 390 0
-399 -390 0
-400 391 0
400 -391 -399 0
-400 399 0
401 400 0
-401 -400 0
402 -393 401 0
402 -343 -401 0
-402 393 401 0
-402 343 -401 0
403 -394 401 0
403 -344 -401 0
-403 394 401 0
-403 344 -401 0
404 -395 401 0
404 -345 -401 0
-404 395 401 0
-404 345 -401 0
405 -343 401 0
405 -393 -401 0
-405 343 401 0
-405 393 -401 0
406 -344 401 0
406 -394 -401 0
-406 344 401 0
-406 394 -401 0
407 -345 401 0
407 -395 -401 0
-407 345 401 0
-407 395 -401 0
408 -396 0
-408 396 0
409 -397 0
-409 397 0
410 -398 0
-410 398 0
411 404 -410 0
-411 410 0
-411 -404 0
-412 409 0
412 403 404 -409 410 0
-412 404 -410 0
412 403 -404 -409 -410 0
-412 -404 410 0
-412 -403 0
413 -412 0
-413 411 412 0
413 -411 0
-414 408 0
414 402 404 -408 410 0
-414 404 -410 0
414 402 -404 -408 -410 0
-414 -404 410 0
-414 -402 0
415 403 409 -414 0
-415 414 0
-415 403 -409 0
-415 -403 409 0
415 -403 -409 -414 0
416 -415 0
-416 413 415 0
416 -413 0
-417 416 0
417 -416 0
-418 0
-419 0
420 -419 0
-420 418 419 0
420 -418 0
-421 0
422 -421 0
-422 421 0
423 -422 0
-423 420 422 0
423 -420 0
-424 417 0
424 -417 -423 0
-424 423 0
425 -424 0
-425 417 424 0
425 -417 0
426 425 0
-426 -425 0
427 -402 426 0
427 -408 -426 0
-427 402 426 0
-427 408 -426 0
428 -403 426 0
428 -409 -426 0
-428 403 426 0
-428 409 -426 0
429 -404 426 0
429 -410 -426 0
-429 404 426 0
-429 410 -426 0
430 -408 426 0
430 -402 -426 0
-430 408 426 0
-430 402 -426 0
431 -409 426 0
431 -403 -426 0
-431 409 426 0
-431 403 -426 0
432 -410 426 0
432 -404 -426 0
-432 410 426 0
-432 404 -426 0
433 143 -427 0
433 -143 427 0
-433 143 427 0
-433 -143 -427 0
434 144 -428 0
434 -144 428 0
-434 144 428 0
-434 -144 -428 0
435 145 -429 0
435 -145 429 0
-435 145 429 0
-435 -145 -429 0
436 222 -430 0
436 -222 430 0
-436 222 430 0
-436 -222 -430 0
437 223 -431 0
437 -223 431 0
-437 223 431 0
-437 -223 -431 0
438 224 -432 0
438 -224 432 0
-438 224 432 0
-438 -224 -432 0
439 252 -405 0
439 -252 405 0
-439 252 405 0
-439 -252 -405 0
440 253 -406 0
440 -253 406 0
-440 253 406 0
-440 -253 -406 0
441 254 -407 0
441 -254 407 0
-441 254 407 0
-441 -254 -407 0
442 255 -337 0
442 -255 337 0
-442 255 337 0
-442 -255 -337 0
443 256 -338 0
443 -256 338 0
-443 256 338 0
-443 -256 -338 0
444 257 -339 0
444 -257 339 0
-444 257 339 0
-444 -257 -339 0
445 -435 0
-445 433 434 435 0
445 -434 0
445 -433 0
446 -438 0
-446 436 437 438 0
446 -437 0
446 -436 0
447 -441 0
-447 439 440 441 0
447 -440 0
447 -439 0
448 -444 0
-448 442 443 444 0
448 -443 0
448 -442 0
449 -448 0
-449 445 446 447 448 0
449 -447 0
449 -446 0
449 -445 0
449 0
